17
17
85
109
40
57
0
78
19
309
70
220
102
17
78
22
585
108
102
72
29
65
65
75
30
204
70
137
0
63
403
60
128
0
46
76
164
93
13
33
0
0
39
36
418
39
153
26
0
44
39
0
20
30
240
91
57
24
59
0
192
28
137
42
45
0
30
53
34
30
42
63
59
77
21
55
34
0
181
64
15
31
91
31
78
106
21
31
114
19
56
25
38
16
48
39
23
38
21
0
